12
Properties=species:S:1:pos:R:3 adjlist_labels="_JSON [1, 2, 3, 4, 5, 6, 7, 8, 9, 10, 11, 12]" pbc="F F F"
C        0.00000000       0.00000000       0.00000000
C       -0.69160000      -1.19788634       0.00000000
C       -2.07480000      -1.19788634       0.00000000
C       -2.76640000      -0.00000000       0.00000000
C       -2.07480000       1.19788634       0.00000000
C       -0.69160000       1.19788634       0.00000000
H        1.07000000       0.00000000       0.00000000
H       -0.15660000      -2.12453352       0.00000000
H       -2.60980000      -2.12453352       0.00000000
H       -3.83640000      -0.00000000       0.00000000
H       -2.60980000       2.12453352       0.00000000
H       -0.15660000       2.12453352       0.00000000
