10
Properties=species:S:1:pos:R:3 adjlist_labels="_JSON [1, 2, 3, 4, 5, 6, 7, 8, 9, 10]" pbc="F F F"
C        0.00000000       0.00000000       0.00000000
C        1.32240000       0.00000000       0.00000000
C        2.08240000       1.31635861       0.00000000
C        3.40480000       1.31635861       0.00000000
H       -0.53500000       0.92664718       0.00000000
H       -0.53500000      -0.92664718       0.00000000
H        1.85740000      -0.92664718       0.00000000
H        1.54740000       2.24300580      -0.00000000
H        3.93980000       0.38971143       0.00000000
H        3.93980000       2.24300580       0.00000000
