15
Properties=species:S:1:pos:R:3 adjlist_labels="_JSON [1, 2, 3, 4, 5, 6, 7, 8, 9, 10, 11, 12, 13, 14, 15]" pbc="F F F"
C        0.00000000       0.00000000       0.00000000
C       -0.90427952      -1.19590073      -0.25000000
C       -2.30131442      -0.65166412      -0.50000000
C       -2.20995720       0.78083504       0.00000000
C       -0.82885249       1.17192301      -0.50000000
H        0.91292674      -0.08728062      -0.55122306
H        0.22089323       0.10296691       1.04187523
H       -0.90797179      -1.83900140       0.60516542
H       -0.56395801      -1.74158688      -1.10516542
H       -3.03294128      -1.20463364       0.05122306
H       -2.54339800      -0.67979855      -1.54187523
H       -2.27040845       0.82964662       1.06717528
H       -2.97261781       1.39664807      -0.42897913
H       -0.80296810       1.24518229      -1.56717528
H       -0.50229166       2.09617131      -0.07102087
