9
Properties=species:S:1:pos:R:3 adjlist_labels="_JSON [1, 2, 3, 4, 5, 6, 7, 8, 9]" pbc="F F F"
O        0.00000000       0.00000000       0.00000000
C       -0.84536813      -1.14094379       0.00000000
C       -2.11171073      -0.76000000       0.00000000
C       -2.11171073       0.76000000       0.00000000
C       -0.84536813       1.14094379       0.00000000
H       -0.50832000      -2.15647249       0.00000000
H       -2.97040491      -1.39839198       0.00000000
H       -2.97040491       1.39839198       0.00000000
H       -0.50832000       2.15647249       0.00000000
