21
Properties=species:S:1:pos:R:3 adjlist_labels="_JSON [1, 2, 3, 4, 5, 6, 7, 8, 9, 10, 11, 12, 13, 14, 15, 16, 17, 18, 19, 20, 21]" pbc="F F F"
C        1.42949045      -0.00000000      -0.51667887
C        0.00000000       0.00000000       0.00000000
C       -0.71770467      -1.24310096      -0.50000000
C       -2.15311402      -1.24310096       0.00000000
C       -2.87081870       0.00000000      -0.50000000
C       -2.15311402       1.24310096       0.00000000
C       -0.71770467       1.24310096      -0.50000000
H        1.93574492       0.87472042      -0.16529504
H        1.93700610      -0.87257833      -0.16180575
H        1.42200636      -0.00214209      -1.58665055
H        0.00748486       0.00000000       1.06997382
H       -0.21456165      -2.11457024      -0.13628527
H       -0.71396225      -1.24958304      -1.56997382
H       -2.15685645      -1.24958304       1.06997382
H       -2.65625704      -2.11457024      -0.36371473
H       -3.87710474       0.00000000      -0.13628527
H       -2.87830356       0.00000000      -1.56997382
H       -2.15685645       1.24958304       1.06997382
H       -2.65625704       2.11457024      -0.36371473
H       -0.71396225       1.24958304      -1.56997382
H       -0.21456165       2.11457024      -0.13628527
