11
Properties=species:S:1:pos:R:3 adjlist_labels="_JSON [1, 2, 3, 4, 5, 6, 7, 8, 9, 10, 11]" pbc="F F F"
C        0.00000000       0.00000000       0.00000000
C        0.87757241       0.87757241       0.87757241
C       -0.00000000       1.75514482       1.75514482
H        0.61776479      -0.61776479      -0.61776479
H       -0.61776479       0.61776479      -0.61776479
H       -0.61776479      -0.61776479       0.61776479
H        1.49533720       0.25980762       1.49533720
H        1.49533720       1.49533720       0.25980762
H        0.61776479       2.37290961       2.37290961
H       -0.61776479       2.37290961       1.13738003
H       -0.61776479       1.13738003       2.37290961
